glpk/models/transportation5.lp
\* Problem: Transportation 5 - PowerCo *\

Minimize
 z: + 8 x11 + 6 x12 + 10 x13 + 9 x14 + 9 x21 + 12 x22 + 13 x23 + 7 x24
 + 14 x31 + 9 x32 + 16 x33 + 5 x34

Subject To
 c1: - x14 - x13 - x12 - x11 = -35
 c2: - x24 - x23 - x22 - x21 = -50
 c3: - x34 - x33 - x32 - x31 = -40
 c4: + x31 + x21 + x11 = 45
 c5: + x32 + x22 + x12 = 20
 c6: + x33 + x23 + x13 = 30
 c7: + x34 + x24 + x14 = 30

Generals
 x11
 x12
 x13
 x14
 x21
 x22
 x23
 x24
 x31
 x32
 x33
 x34

End
