transportation5.sol
Transportation 5 - PowerCo
z = 1020.0
x11 = 0.0
x12 = 10.0
x13 = 25.0
x14 = 0.0
x21 = 45.0
x22 = 0.0
x23 = 5.0
x24 = 0.0
x31 = 0.0
x32 = 10.0
x33 = 0.0
x34 = 30.0
